(set-logic QF_S)
(declare-fun I () String)
(declare-fun H () String)
(declare-fun K () String)
(declare-fun R () String)
(declare-fun F () String)
(declare-fun G () String)
(declare-fun L () String)
(declare-fun M () String)
(declare-fun P () String)
(assert (= (str.++  F "aaa" F "aab" I "a" I I "b" L L "b" P)  (str.++  "a" G H K L L K L L "b" M M M M "b" R R "baa") ))
(check-sat)
(get-model)
